Test: fpga13_9_sat.cnf
Options: -no-inverting-opt -activity-nl-freq=1
WARNING: for repeatability, setting FPU to use double precision
============================[ Problem Statistics ]=============================
|                                                                             |
|  Number of symmetries:           26                                         |
|  Number of invertingSyms:         0                                         |
|  Number of variables:           176                                         |
|  Number of clauses:             759                                         |
|  Parse time:                   0.00 s                                       |
|                                                                             |
============================[ Search Statistics ]==============================
| Conflicts |          ORIGINAL         |          LEARNT          | Progress |
|           |    Vars  Clauses Literals |    Limit  Clauses Lit/Cl |          |
===============================================================================
|       100 |     176      759     2031 |      278      247     46 |  0.003 % |
===============================================================================
restarts              : 3
conflicts             : 204            (inf /sec)
symconflicts          : 78             (inf /sec)
decisions             : 504            (0.00 % random) (inf /sec)
propagations          : 3603           (inf /sec)
sympropagations       : 272            (inf /sec)
conflict literals     : 7802           (1.71 % deleted)
literals     : 7802           (1.71 % deleted)

HEURISTIC USAGES
random                : 0           
activity w/ lookahead : 0           
activity no lookahead : 503         
original sp           : 0           
sym count             : 0           

Memory used           : 5.00 MB
CPU time              : 0 s

SATISFIABLE
